proyfinal/src/viki/013/experimentInOfficeAgust.take6.output/30e330f9-5f11-4eec-9ff7-ab5c07842539.als.dat
{'cnf.clauses': '118081',
 'cnf.totvars': '69608',
 'conflict literals': '3208',
 'conflicts': '281',
 'decisions': '6035',
 'memused.mb': '16.39',
 'outcome': 'UNSAT',
 'propagations': '405239',
 'restarts': '3',
 'solver.msecs': 48,
 'task.msecs': 104}
