proyfinal/src/viki/013/experimentInOfficeAgust.take6.output/30e330f9-5f11-4eec-9ff7-ab5c07842539.als.out
Reading from standard input... Use '--help' for help.
============================[ Problem Statistics ]=============================
|                                                                             |
|  Number of variables:         69608                                         |
|  Number of clauses:          118081                                         |
|  Parse time:                   0.03 s                                       |
|                                                                             |
============================[ Search Statistics ]==============================
| Conflicts |          ORIGINAL         |          LEARNT          | Progress |
|           |    Vars  Clauses Literals |    Limit  Clauses Lit/Cl |          |
===============================================================================
|       100 |   57328    82521   204380 |    30257       96     10 | 17.642 % |
|       250 |   56825    82159   203541 |    33283      228     12 | 18.364 % |
===============================================================================
restarts              : 3
conflicts             : 281            (5790 /sec)
decisions             : 6035           (0.00 % random) (124343 /sec)
propagations          : 405239         (8349418 /sec)
conflict literals     : 3208           (20.28 % deleted)
Memory used           : 16.39 MB
CPU time              : 0.048535 s

UNSATISFIABLE
